c A SAT instance generated from a 3-CNF formula that had 18 clauses and 9 variables
p cnf 9 18
4 -2 -9 0
2 5 -6 0
9 2 -4 0
-2 6 -5 0
4 -5 7 0
-7 -2 -3 0
-6 -4 -1 0
8 -9 2 0
9 8 -7 0
1 8 -7 0
-3 -4 7 0
-9 7 1 0
-8 4 7 0
1 -7 5 0
-7 5 8 0
4 2 -3 0
-6 -9 -3 0
6 -7 5 0
